4 
5  01 28 44 
6  04 19 31 39 46 54 
7  01 09 16 24 31 39 46 54 
8  01 09 16 24 31 39 46 54 
9  04 13 21 28 36 43 51 58 
10  06 13 21 28 36 43 51 58 
11  06 13 21 28 36 43 51 58 
12  06 13 21 28 36 43 51 59 
13  07 15 22 30 37 45 52 
14  00 07 15 22 30 39 47 54 
15  02 09 17 24 32 39 47 54 
16  02 09 17 24 32 39 47 54 
17  02 09 17 24 32 39 47 54 
18  02 09 17 24 32 39 47 54 
19  02 09 17 24 32 40 47 54 
20  02 09 17 24 32 39 47 54 
21  02 09 24 39 54 
22  09 25 40 55 
23  08 23 
0 
